4	143	143	0	0	0
5	144	103	0	0	0
6	236	184	0	0	0
7	279	240	0	16	16
8	267	244	0	16	16
9	261	225	0	32	32
10	385	227	0	16	16
11	438	308	0	203	203
12	377	314	0	16	16
13	541	340	0	31	31
14	551	395	0	31	31
15	675	404	0	47	47
16	560	393	0	31	31
17	656	421	0	94	94
18	634	452	0	187	187
19	875	525	0	93	93
